80 77 3 14 27 66 34 12 37 58 57 75 79 56 28 35 21 62 46 71 55 74 43 50 51 59 67 8 42 25 22 52 32 70 73 6 7 60 64 39 65 23 18 47 63 41 54 33 38 11 19 61 1 31 78 15 48 16 76 24 20 40 36 9 5 17 13 53 49 69 29 4 10 2 26 30 45 44 68 72